NPROCS=0
This instance is clustered!
Gurobi Optimizer version 9.0.0 build v9.0.0rc2 (linux64)
Optimize a model with 24 rows, 145 columns and 288 nonzeros
Model fingerprint: 0xb74b27b4
Variable types: 1 continuous, 144 integer (144 binary)
Coefficient statistics:
  Matrix range     [1e+00, 1e+00]
  Objective range  [1e+00, 1e+02]
  Bounds range     [1e+00, 1e+00]
  RHS range        [1e+00, 1e+00]
Presolve removed 2 rows and 33 columns
Presolve time: 0.00s
Presolved: 22 rows, 112 columns, 222 nonzeros
Variable types: 1 continuous, 111 integer (111 binary)

Root relaxation: objective 2.034199e+02, 19 iterations, 0.00 seconds

    Nodes    |    Current Node    |     Objective Bounds      |     Work
 Expl Unexpl |  Obj  Depth IntInf | Incumbent    BestBd   Gap | It/Node Time

     0     0  218.09596    0    8          -  218.09596      -     -    0s
 done with super cut 0
 done with super cut 1
H    0     0                     484.5751796  218.09596  55.0%     -    0s
 done with super cut 2
 done with super cut 3
H    0     0                     365.6718827  218.09596  40.4%     -    0s
 done with super cut 4
 done with super cut 5
     0     0  267.10944    0   26  365.67188  267.10944  27.0%     -    0s
 done with super cut 6
 done with super cut 7
H    0     0                     316.0235428  267.10944  15.5%     -    1s
     0     0  275.65564    0   23  316.02354  275.65564  12.8%     -    1s
     0     0  275.65564    0   23  316.02354  275.65564  12.8%     -    1s
 done with super cut 8
 done with super cut 9
H    0     0                     278.2241093  275.65564  0.92%     -    2s
     0     0  275.65564    0   23  278.22411  275.65564  0.92%     -    2s

Cutting planes:
  Gomory: 1
  Lazy constraints: 15

Explored 1 nodes (47 simplex iterations) in 2.37 seconds
Thread count was 12 (of 12 available processors)

Solution count 4: 278.224 316.024 365.672 484.575 

Optimal solution found (tolerance 1.00e-04)
Best objective 2.782241092894e+02, best bound 2.782241092894e+02, gap 0.0000%

User-callback calls 97, time in user-callback 2.35 sec
/projects/academic/josewalt/caigao/RRARP_BD/BendersDecomp/ret/model_outs/n_10_e_2_algo_4.out
 =====>>>>> Solution is written to file in <../ret/model_outs> !!!
===>> All Done!
